
50
126943

6819 6821
915 917
6177 6179
8418 8420
8346 8346
5151 5151
6309 6311
3693 3693
5280 5281
1077 1079
6828 6830
6006 6007
2820 2820
3786 3786
7362 7362
4437 4439
9597 9597
9711 9713
8382 8384
909 911
750 752
2886 2886
3612 3612
7050 7050
8268 8269
5625 5627
6390 6392
5730 5731
339 341
5265 5267
2133 2133
4170 4170
87 88
6558 6558
9102 9103
687 687
5799 5801
234 235
3519 3519
1593 1593
8604 8606
7281 7281
8964 8966
2178 2180
7188 7189
6993 6995
5106 5107
9162 9162
6249 6250
2829 2829
